sat
(= |goto_symex::&92;guard#1| true)
(= |goto_symex::&92;guard#2| false)
(= |memory_model::choice_rf_1_8_0_10_T_0| false)
(= |memory_model::choice_rf_1_8_2_23_T_1| true)
(= |memory_model::choice_rf_1_8_3_61_T_2| false)
(= |memory_model::choice_rf_2_22_0_10_T_3| true)
(= |memory_model::choice_rf_2_22_1_9_T_4| false)
(= |memory_model::choice_rf_2_22_3_61_T_5| false)
(= |memory_model::choice_rf_3_60_0_10_T_6| false)
(= |memory_model::choice_rf_3_60_1_9_T_7| false)
(= |memory_model::choice_rf_3_60_2_23_T_8| true)
(= |memory_model::choice_rf_0_46_0_8_T_9| false)
(= |memory_model::choice_rf_0_46_0_42_T_10| true)
(= |memory_model::choice_rf_0_51_0_8_T_11| false)
(= |memory_model::choice_rf_0_51_0_42_T_12| false)
(= |memory_model::choice_rf_0_51_0_47_T_13| true)
(= |memory_model::choice_rf_1_2_0_22_F_14| false)
(= |memory_model::choice_rf_1_2_1_1_F_15| true)
(= |memory_model::choice_rf_0_55_0_11_F_16| false)
(= |memory_model::choice_rf_0_55_1_7_F_17| false)
(= |memory_model::choice_rf_0_55_2_21_F_18| false)
(= |memory_model::choice_rf_0_55_3_59_F_19| true)
(= |memory_model::choice_rf_1_6_0_11_F_20| false)
(= |memory_model::choice_rf_1_6_2_21_F_21| true)
(= |memory_model::choice_rf_1_6_3_59_F_22| false)
(= |memory_model::choice_rf_2_20_0_11_F_23| true)
(= |memory_model::choice_rf_2_20_1_7_F_24| false)
(= |memory_model::choice_rf_2_20_3_59_F_25| false)
(= |memory_model::choice_rf_3_58_0_11_F_26| false)
(= |memory_model::choice_rf_3_58_1_7_F_27| true)
(= |memory_model::choice_rf_3_58_2_21_F_28| false)
(= |memory_model::choice_rf_0_75_0_12_F_29| false)
(= |memory_model::choice_rf_0_75_1_3_F_30| true)
(= |memory_model::choice_rf_0_72_0_13_F_31| false)
(= |memory_model::choice_rf_0_72_1_5_F_32| true)
(= |memory_model::choice_rf_0_71_0_14_F_33| false)
(= |memory_model::choice_rf_0_71_2_11_F_34| true)
(= |memory_model::choice_rf_0_74_0_15_F_35| false)
(= |memory_model::choice_rf_0_74_3_33_F_36| true)
(= |memory_model::choice_rf_3_19_0_15_F_37| false)
(= |memory_model::choice_rf_0_73_0_16_F_38| false)
(= |memory_model::choice_rf_0_73_3_45_F_39| true)
(= |memory_model::choice_rf_3_43_0_16_F_40| false)
(= |memory_model::choice_rf_3_44_0_17_F_41| true)
(= |memory_model::choice_rf_3_44_1_0_F_42| false)
(= |memory_model::choice_rf_0_57_0_18_F_43| false)
(= |memory_model::choice_rf_0_57_0_56_F_44| true)
(= |memory_model::choice_rf_0_70_0_19_F_45| false)
(= |memory_model::choice_rf_0_77_0_19_F_46| false)
(= |memory_model::choice_rf_0_77_0_76_F_47| true)
(= |memory_model::choice_rf_0_78_0_19_F_48| false)
(= |memory_model::choice_rf_0_78_0_76_F_49| true)
(= |memory_model::choice_rf_1_4_0_23_F_50| true)
(= |memory_model::choice_rf_1_4_2_0_F_51| false)
(= |memory_model::choice_rf_0_58_0_24_F_52| false)
(= |memory_model::choice_rf_0_58_2_13_F_53| false)
(= |memory_model::choice_rf_0_58_3_36_F_54| false)
(= |memory_model::choice_rf_0_58_3_57_F_55| true)
(= |memory_model::choice_rf_2_7_0_24_F_56| false)
(= |memory_model::choice_rf_2_7_0_69_F_57| false)
(= |memory_model::choice_rf_2_7_3_36_F_58| true)
(= |memory_model::choice_rf_2_7_3_57_F_59| false)
(= |memory_model::choice_rf_3_25_0_24_F_60| true)
(= |memory_model::choice_rf_3_25_0_69_F_61| false)
(= |memory_model::choice_rf_3_25_2_13_F_62| false)
(= |memory_model::choice_rf_3_46_0_24_F_63| false)
(= |memory_model::choice_rf_3_46_0_69_F_64| false)
(= |memory_model::choice_rf_3_46_2_13_F_65| true)
(= |memory_model::choice_rf_3_46_3_36_F_66| false)
(= |memory_model::choice_rf_3_26_0_25_F_67| false)
(= |memory_model::choice_rf_3_26_2_15_F_68| false)
(= |memory_model::choice_rf_3_24_0_26_F_69| false)
(= |memory_model::choice_rf_3_24_2_14_F_70| false)
(= |memory_model::choice_rf_0_63_0_27_F_71| true)
(= |memory_model::choice_rf_3_7_0_27_F_72| true)
(= |memory_model::choice_rf_3_7_0_66_F_73| false)
(= |memory_model::choice_rf_3_3_0_28_F_74| true)
(= |memory_model::choice_rf_2_5_0_29_F_75| true)
(= |memory_model::choice_rf_3_1_0_29_F_76| true)
(= |memory_model::choice_rf_3_1_2_9_F_77| false)
(= |memory_model::choice_rf_3_5_0_30_F_78| true)
(= |memory_model::choice_rf_3_23_0_30_F_79| false)
(= |memory_model::choice_rf_3_23_3_12_F_80| true)
(= |memory_model::choice_rf_3_51_0_30_F_81| false)
(= |memory_model::choice_rf_3_51_3_12_F_82| false)
(= |memory_model::choice_rf_3_51_3_32_F_83| true)
(= |memory_model::choice_rf_0_60_0_31_F_84| false)
(= |memory_model::choice_rf_0_60_3_14_F_85| true)
(= |memory_model::choice_rf_3_6_0_31_F_86| false)
(= |memory_model::choice_rf_3_6_0_65_F_87| false)
(= |memory_model::choice_rf_3_2_0_32_F_88| false)
(= |memory_model::choice_rf_2_4_0_33_F_89| false)
(= |memory_model::choice_rf_2_4_3_10_F_90| true)
(= |memory_model::choice_rf_3_0_0_33_F_91| false)
(= |memory_model::choice_rf_3_0_2_8_F_92| false)
(= |memory_model::choice_rf_3_4_0_34_F_93| false)
(= |memory_model::choice_rf_3_22_0_34_F_94| false)
(= |memory_model::choice_rf_3_22_3_13_F_95| true)
(= |memory_model::choice_rf_3_50_0_34_F_96| false)
(= |memory_model::choice_rf_3_50_3_13_F_97| false)
(= |memory_model::choice_rf_3_50_3_31_F_98| true)
(= |memory_model::choice_rf_0_62_0_37_F_99| false)
(= |memory_model::choice_rf_0_62_2_12_F_100| true)
(= |memory_model::choice_rf_0_62_3_17_F_101| false)
(= |memory_model::choice_rf_0_62_3_35_F_102| false)
(= |memory_model::choice_rf_2_2_0_37_F_103| false)
(= |memory_model::choice_rf_2_2_3_17_F_104| false)
(= |memory_model::choice_rf_2_2_3_35_F_105| true)
(= |memory_model::choice_rf_3_9_0_37_F_106| true)
(= |memory_model::choice_rf_3_9_2_12_F_107| false)
(= |memory_model::choice_rf_3_21_0_37_F_108| false)
(= |memory_model::choice_rf_3_21_2_12_F_109| false)
(= |memory_model::choice_rf_3_21_3_17_F_110| true)
(= |memory_model::choice_rf_3_49_0_37_F_111| false)
(= |memory_model::choice_rf_3_49_2_12_F_112| true)
(= |memory_model::choice_rf_3_49_3_17_F_113| false)
(= |memory_model::choice_rf_3_49_3_35_F_114| false)
(= |memory_model::choice_rf_0_64_0_38_F_115| false)
(= |memory_model::choice_rf_0_64_2_16_F_116| false)
(= |memory_model::choice_rf_0_64_3_15_F_117| false)
(= |memory_model::choice_rf_0_64_3_39_F_118| false)
(= |memory_model::choice_rf_0_64_3_56_F_119| true)
(= |memory_model::choice_rf_2_6_0_38_F_120| false)
(= |memory_model::choice_rf_2_6_0_68_F_121| false)
(= |memory_model::choice_rf_2_6_3_15_F_122| false)
(= |memory_model::choice_rf_2_6_3_39_F_123| true)
(= |memory_model::choice_rf_2_6_3_56_F_124| false)
(= |memory_model::choice_rf_3_8_0_38_F_125| true)
(= |memory_model::choice_rf_3_8_0_68_F_126| false)
(= |memory_model::choice_rf_3_8_2_16_F_127| false)
(= |memory_model::choice_rf_3_27_0_38_F_128| false)
(= |memory_model::choice_rf_3_27_0_68_F_129| false)
(= |memory_model::choice_rf_3_27_2_16_F_130| false)
(= |memory_model::choice_rf_3_27_3_15_F_131| true)
(= |memory_model::choice_rf_3_52_0_38_F_132| false)
(= |memory_model::choice_rf_3_52_0_68_F_133| false)
(= |memory_model::choice_rf_3_52_2_16_F_134| true)
(= |memory_model::choice_rf_3_52_3_15_F_135| false)
(= |memory_model::choice_rf_3_52_3_39_F_136| false)
(= |memory_model::choice_rf_0_59_0_39_F_137| false)
(= |memory_model::choice_rf_0_59_2_10_F_138| true)
(= |memory_model::choice_rf_0_59_3_18_F_139| false)
(= |memory_model::choice_rf_0_59_3_34_F_140| false)
(= |memory_model::choice_rf_2_1_0_39_F_141| false)
(= |memory_model::choice_rf_2_1_3_18_F_142| false)
(= |memory_model::choice_rf_2_1_3_34_F_143| true)
(= |memory_model::choice_rf_3_20_0_39_F_144| false)
(= |memory_model::choice_rf_3_20_2_10_F_145| false)
(= |memory_model::choice_rf_3_20_3_18_F_146| true)
(= |memory_model::choice_rf_3_47_0_39_F_147| false)
(= |memory_model::choice_rf_3_47_2_10_F_148| true)
(= |memory_model::choice_rf_3_47_3_18_F_149| false)
(= |memory_model::choice_rf_3_47_3_34_F_150| false)
(= |memory_model::choice_rf_0_61_0_40_F_151| false)
(= |memory_model::choice_rf_0_61_2_18_F_152| false)
(= |memory_model::choice_rf_0_61_3_16_F_153| false)
(= |memory_model::choice_rf_0_61_3_41_F_154| false)
(= |memory_model::choice_rf_0_61_3_55_F_155| true)
(= |memory_model::choice_rf_2_3_0_40_F_156| false)
(= |memory_model::choice_rf_2_3_0_67_F_157| false)
(= |memory_model::choice_rf_2_3_3_16_F_158| false)
(= |memory_model::choice_rf_2_3_3_41_F_159| true)
(= |memory_model::choice_rf_2_3_3_55_F_160| false)
(= |memory_model::choice_rf_3_29_0_40_F_161| false)
(= |memory_model::choice_rf_3_29_0_67_F_162| false)
(= |memory_model::choice_rf_3_29_2_18_F_163| false)
(= |memory_model::choice_rf_3_29_3_16_F_164| true)
(= |memory_model::choice_rf_3_48_0_40_F_165| false)
(= |memory_model::choice_rf_3_48_0_67_F_166| false)
(= |memory_model::choice_rf_3_48_2_18_F_167| true)
(= |memory_model::choice_rf_3_48_3_16_F_168| false)
(= |memory_model::choice_rf_3_48_3_41_F_169| false)
(= |memory_model::choice_rf_3_30_0_20_F_170| false)
(= |memory_model::choice_rf_3_30_2_19_F_171| false)
(= |memory_model::choice_rf_3_28_0_21_F_172| false)
(= |memory_model::choice_rf_3_28_2_17_F_173| false)
(= |memory_model::choice_ws-ext_0_10_1_9_T_174| true)
(= |memory_model::choice_ws-ext_0_10_2_23_T_175| true)
(= |memory_model::choice_ws-ext_0_10_3_61_T_176| true)
(= |memory_model::choice_ws-ext_1_9_2_23_T_177| false)
(= |memory_model::choice_ws-ext_1_9_3_61_T_178| true)
(= |memory_model::choice_ws-ext_2_23_3_61_T_179| true)
(= |memory_model::choice_ws-ext_0_22_1_1_F_180| true)
(= |memory_model::choice_ws-ext_0_11_1_7_F_181| true)
(= |memory_model::choice_ws-ext_0_11_2_21_F_182| true)
(= |memory_model::choice_ws-ext_0_11_3_59_F_183| true)
(= |memory_model::choice_ws-ext_1_7_2_21_F_184| false)
(= |memory_model::choice_ws-ext_1_7_3_59_F_185| true)
(= |memory_model::choice_ws-ext_2_21_3_59_F_186| true)
(= |memory_model::choice_ws-ext_0_12_1_3_F_187| true)
(= |memory_model::choice_ws-ext_0_13_1_5_F_188| true)
(= |memory_model::choice_ws-ext_0_14_2_11_F_189| true)
(= |memory_model::choice_ws-ext_0_15_3_33_F_190| true)
(= |memory_model::choice_ws-ext_0_16_3_45_F_191| true)
(= |memory_model::choice_ws-ext_0_17_1_0_F_192| true)
(= |memory_model::choice_ws-ext_0_23_2_0_F_193| true)
(= |memory_model::choice_ws-ext_0_24_2_13_F_194| true)
(= |memory_model::choice_ws-ext_0_24_3_36_F_195| true)
(= |memory_model::choice_ws-ext_0_24_3_57_F_196| true)
(= |memory_model::choice_ws-ext_0_69_2_13_F_197| false)
(= |memory_model::choice_ws-ext_0_69_3_36_F_198| false)
(= |memory_model::choice_ws-ext_0_69_3_57_F_199| false)
(= |memory_model::choice_ws-ext_2_13_3_36_F_200| false)
(= |memory_model::choice_ws-ext_2_13_3_57_F_201| true)
(= |memory_model::choice_ws-ext_0_25_2_15_F_202| true)
(= |memory_model::choice_ws-ext_0_25_3_38_F_203| true)
(= |memory_model::choice_ws-ext_2_15_3_38_F_204| false)
(= |memory_model::choice_ws-ext_0_26_2_14_F_205| true)
(= |memory_model::choice_ws-ext_0_26_3_37_F_206| true)
(= |memory_model::choice_ws-ext_2_14_3_37_F_207| false)
(= |memory_model::choice_ws-ext_0_29_2_9_F_208| true)
(= |memory_model::choice_ws-ext_0_30_3_12_F_209| true)
(= |memory_model::choice_ws-ext_0_30_3_32_F_210| true)
(= |memory_model::choice_ws-ext_0_30_3_54_F_211| true)
(= |memory_model::choice_ws-ext_0_31_3_14_F_212| true)
(= |memory_model::choice_ws-ext_0_65_3_14_F_213| false)
(= |memory_model::choice_ws-ext_0_32_3_11_F_214| true)
(= |memory_model::choice_ws-ext_0_33_2_8_F_215| true)
(= |memory_model::choice_ws-ext_0_33_3_10_F_216| true)
(= |memory_model::choice_ws-ext_2_8_3_10_F_217| false)
(= |memory_model::choice_ws-ext_0_34_3_13_F_218| true)
(= |memory_model::choice_ws-ext_0_34_3_31_F_219| true)
(= |memory_model::choice_ws-ext_0_34_3_53_F_220| true)
(= |memory_model::choice_ws-ext_0_37_2_12_F_221| true)
(= |memory_model::choice_ws-ext_0_37_3_17_F_222| true)
(= |memory_model::choice_ws-ext_0_37_3_35_F_223| true)
(= |memory_model::choice_ws-ext_2_12_3_17_F_224| false)
(= |memory_model::choice_ws-ext_2_12_3_35_F_225| false)
(= |memory_model::choice_ws-ext_0_38_2_16_F_226| true)
(= |memory_model::choice_ws-ext_0_38_3_15_F_227| true)
(= |memory_model::choice_ws-ext_0_38_3_39_F_228| true)
(= |memory_model::choice_ws-ext_0_38_3_56_F_229| true)
(= |memory_model::choice_ws-ext_0_68_2_16_F_230| false)
(= |memory_model::choice_ws-ext_0_68_3_15_F_231| false)
(= |memory_model::choice_ws-ext_0_68_3_39_F_232| false)
(= |memory_model::choice_ws-ext_0_68_3_56_F_233| false)
(= |memory_model::choice_ws-ext_2_16_3_15_F_234| false)
(= |memory_model::choice_ws-ext_2_16_3_39_F_235| false)
(= |memory_model::choice_ws-ext_2_16_3_56_F_236| true)
(= |memory_model::choice_ws-ext_0_39_2_10_F_237| true)
(= |memory_model::choice_ws-ext_0_39_3_18_F_238| true)
(= |memory_model::choice_ws-ext_0_39_3_34_F_239| true)
(= |memory_model::choice_ws-ext_2_10_3_18_F_240| false)
(= |memory_model::choice_ws-ext_2_10_3_34_F_241| false)
(= |memory_model::choice_ws-ext_0_40_2_18_F_242| true)
(= |memory_model::choice_ws-ext_0_40_3_16_F_243| true)
(= |memory_model::choice_ws-ext_0_40_3_41_F_244| true)
(= |memory_model::choice_ws-ext_0_40_3_55_F_245| true)
(= |memory_model::choice_ws-ext_0_67_2_18_F_246| false)
(= |memory_model::choice_ws-ext_0_67_3_16_F_247| false)
(= |memory_model::choice_ws-ext_0_67_3_41_F_248| false)
(= |memory_model::choice_ws-ext_0_67_3_55_F_249| false)
(= |memory_model::choice_ws-ext_2_18_3_16_F_250| false)
(= |memory_model::choice_ws-ext_2_18_3_41_F_251| false)
(= |memory_model::choice_ws-ext_2_18_3_55_F_252| true)
(= |memory_model::choice_ws-ext_0_20_2_19_F_253| true)
(= |memory_model::choice_ws-ext_0_20_3_42_F_254| true)
(= |memory_model::choice_ws-ext_2_19_3_42_F_255| false)
(= |memory_model::choice_ws-ext_0_21_2_17_F_256| true)
(= |memory_model::choice_ws-ext_0_21_3_40_F_257| true)
(= |memory_model::choice_ws-ext_2_17_3_40_F_258| false)
(= |main$tmp_guard0#3| #b00000001)
(= |__CPROVER_next_thread_id#3| #b00000000000000000000000000000001)
(= |__CPROVER_next_thread_id#6| #b00000000000000000000000000000010)
(= |__unbuffered_cnt#2| #b00000000000000000000000000000011)
(= |z$w_buff0_used#2| #b00000000)
(= |z$r_buff0_thd0#2| #b00000000)
(= |z$w_buff0#2| #b00000000000000000000000000000001)
(= |z$w_buff1_used#2| #b00000000)
(= |z$r_buff1_thd0#2| #b00000000)
(= |z$w_buff1#2| #b00000000000000000000000000000000)
(= |z#2| #b00000000000000000000000000000001)
(= |z#4| #b00000000000000000000000000000001)
(= |z$w_buff0_used#6| #b00000000)
(= |z$w_buff1_used#6| #b00000000)
(= |z$r_buff0_thd0#8| #b00000000)
(= |z$r_buff1_thd0#7| #b00000000)
(= |__unbuffered_p0_EAX#2| #b00000000000000000000000000000001)
(= |__unbuffered_p0_EBX#2| #b00000000000000000000000000000000)
(= |__unbuffered_p1_EAX#2| #b00000000000000000000000000000000)
(= |__unbuffered_p2_EAX#2| #b00000000000000000000000000000001)
(= |__unbuffered_p2_EBX#2| #b00000000000000000000000000000000)
(= |main$tmp_guard1#2| #b00000000)
(= |main$tmp_guard1#3| #b10000000)
(= |main$tmp_guard1#6| #b00000000)
(= |pthread_create::1::this_thread_id!1@0#0| #b00000000000000000000000000000000)
(= |x#3| #b00000000000000000000000000000001)
(= |y#2| #b00000000000000000000000000000000)
(= |__unbuffered_cnt#4| #b00000000000000000000000000000001)
(= |pthread_create::1::this_thread_id!2@0#0| #b00000000000000000000000000000000)
(= |nondet_symex::nondet1| #b10000000000000000000000000000000)
(= |nondet_symex::nondet2| #b10000000000000000000000000000000)
(= |z#6| #b00000000000000000000000000000000)
(= |z$w_buff0_used#11| #b00000001)
(= |z$r_buff0_thd2#2| #b00000000)
(= |z$w_buff1_used#9| #b00000000)
(= |z$r_buff1_thd2#2| #b00000000)
(= |z$w_buff0#4| #b00000000000000000000000000000001)
(= |z$w_buff1#4| #b00000000000000000000000000000000)
(= |__unbuffered_cnt#7| #b00000000000000000000000000000000)
(= |pthread_create::1::this_thread_id!3@0#0| #b00000000000000000000000000000000)
(= |z$w_buff0#7| #b00000000000000000000000000000000)
(= |z$w_buff0_used#14| #b00000000)
(= |z$r_buff0_thd0#11| #b00000000)
(= |z$r_buff1_thd0#9| #b00000000)
(= |z$r_buff1_thd0#10| #b10000000)
(= |z$r_buff0_thd1#2| #b00000000)
(= |z$r_buff1_thd1#2| #b00000000)
(= |z$r_buff1_thd1#3| #b10000000)
(= |z$r_buff0_thd2#5| #b00000000)
(= |z$r_buff1_thd2#5| #b00000000)
(= |z$r_buff1_thd2#6| #b10000000)
(= |z$r_buff0_thd3#2| #b00000000)
(= |z$r_buff1_thd3#2| #b00000000)
(= |z$r_buff1_thd3#3| #b10000000)
(= |z$r_buff0_thd3#4| #b00000001)
(= |nondet_symex::nondet4| #b00000000000000000000000000000000)
(= |weak$$choice0#3| #b00000000)
(= |weak$$choice0#4| #b10000000)
(= |nondet_symex::nondet5| #b10000000000000000000000000000000)
(= |weak$$choice2#3| #b00000001)
(= |weak$$choice2#4| #b10000000)
(= |z$flush_delayed#4| #b00000001)
(= |z$flush_delayed#5| #b10000000)
(= |z#10| #b00000000000000000000000000000000)
(= |z$mem_tmp#3| #b00000000000000000000000000000000)
(= |z$mem_tmp#4| #b10000000000000000000000000000000)
(= |z$w_buff0_used#17| #b00000001)
(= |z$r_buff0_thd3#6| #b00000001)
(= |z$w_buff1_used#13| #b00000000)
(= |z$r_buff1_thd3#5| #b00000000)
(= |z$w_buff0#10| #b00000000000000000000000000000001)
(= |z$w_buff1#8| #b00000000000000000000000000000000)
(= |z#13| #b00000000000000000000000000000001)
(= |z$w_buff0#16| #b00000000000000000000000000000001)
(= |z$w_buff1#14| #b00000000000000000000000000000000)
(= |z$w_buff0_used#29| #b00000001)
(= |z$w_buff1_used#21| #b00000000)
(= |z$r_buff0_thd3#28| #b00000001)
(= |z$r_buff1_thd3#15| #b00000000)
(= |__unbuffered_p2_EAX#4| #b00000000000000000000000000000001)
(= |__unbuffered_p2_EAX#5| #b10000000000000000000000000000000)
(= |z#17| #b00000000000000000000000000000000)
(= |z$flush_delayed#8| #b00000000)
(= |a#3| #b00000000000000000000000000000000)
(= |__unbuffered_p2_EBX#4| #b00000000000000000000000000000000)
(= |__unbuffered_p2_EBX#5| #b00000000000000000000000000000000)
(= |z$w_buff0_used#37| #b00000001)
(= |z$r_buff0_thd3#33| #b00000001)
(= |z$w_buff0#18| #b00000000000000000000000000000001)
(= |z$w_buff1_used#25| #b00000000)
(= |z$r_buff1_thd3#17| #b00000000)
(= |z$w_buff1#16| #b00000000000000000000000000000000)
(= |z#19| #b00000000000000000000000000000000)
(= |z#21| #b00000000000000000000000000000001)
(= |z$w_buff0_used#41| #b00000000)
(= |z$w_buff1_used#29| #b00000000)
(= |z$r_buff0_thd3#39| #b00000001)
(= |z$r_buff1_thd3#22| #b00000000)
(= |__unbuffered_cnt#10| #b00000000000000000000000000000010)
(= |__unbuffered_cnt#12| #b00000000000000000000000000000011)
(= |__CPROVER_threads_exited#1$wclk$8| #b00100110)
(= |__CPROVER_threads_exited#2$rclk$8| #b11110111)
(= |__CPROVER_threads_exited#5$wclk$8| #b11101110)
(= |__CPROVER_threads_exited#7$wclk$8| #b11111111)
(= |__CPROVER_threads_exited#4$rclk$8| #b11101011)
(= |__CPROVER_threads_exited#3$wclk$8| #b11111110)
(= |__CPROVER_threads_exited#6$rclk$8| #b11110111)
(= |x#1$wclk$8| #b10100001)
(= |x#3$rclk$8| #b11000111)
(= |__unbuffered_cnt#6$wclk$8| #b11110000)
(= |__unbuffered_cnt#2$rclk$8| #b11111000)
(= |__unbuffered_cnt#9$wclk$8| #b11011111)
(= |__unbuffered_cnt#13$wclk$8| #b11110110)
(= |__unbuffered_cnt#1$wclk$8| #b00100111)
(= |__unbuffered_cnt#4$rclk$8| #b11110000)
(= |__unbuffered_cnt#7$rclk$8| #b11011111)
(= |__unbuffered_cnt#10$rclk$8| #b11110110)
(= |__unbuffered_p0_EAX#4$wclk$8| #b11000111)
(= |__unbuffered_p0_EAX#2$rclk$8| #b11111011)
(= |__unbuffered_p0_EBX#4$wclk$8| #b11001111)
(= |__unbuffered_p0_EBX#2$rclk$8| #b11111011)
(= |__unbuffered_p1_EAX#4$wclk$8| #b11011110)
(= |__unbuffered_p1_EAX#2$rclk$8| #b11111011)
(= |__unbuffered_p2_EAX#6$wclk$8| #b11000011)
(= |__unbuffered_p2_EAX#2$rclk$8| #b11111011)
(= |__unbuffered_p2_EAX#1$wclk$8| #b01000011)
(= |__unbuffered_p2_EAX#5$rclk$8| #b11000011)
(= |__unbuffered_p2_EBX#6$wclk$8| #b11000100)
(= |__unbuffered_p2_EBX#2$rclk$8| #b11111011)
(= |__unbuffered_p2_EBX#1$wclk$8| #b01001011)
(= |__unbuffered_p2_EBX#5$rclk$8| #b11000100)
(= |a#1$wclk$8| #b01001100)
(= |a#3$rclk$8| #b11000100)
(= |a#2$wclk$8| #b11000101)
(= |main$tmp_guard1#5| #b00000000)
(= |y#1$wclk$8| #b10100010)
(= |y#2$rclk$8| #b11001111)
(= |y#4$wclk$8| #b11011101)
(= |z#9$wclk$8| #b11011110)
(= |z#2$rclk$8| #b11111010)
(= |z#18$wclk$8| #b11000011)
(= |z#22$wclk$8| #b11101101)
(= |z#1$wclk$8| #b10100011)
(= |z#6$rclk$8| #b11011110)
(= |z#5$wclk$8| #b11111010)
(= |z#10$rclk$8| #b11000011)
(= |z#19$rclk$8| #b11101101)
(= |z$flush_delayed#1$wclk$8| #b10100100)
(= |z$flush_delayed#5$rclk$8| #b11000011)
(= |z$flush_delayed#3$wclk$8| #b11011110)
(= |z$mem_tmp#1$wclk$8| #b10100101)
(= |z$mem_tmp#4$rclk$8| #b11000011)
(= |z$mem_tmp#2$wclk$8| #b11011110)
(= |z$r_buff0_thd0#1$wclk$8| #b10100110)
(= |z$r_buff0_thd0#11$rclk$8| #b11000010)
(= |z$r_buff0_thd0#10$wclk$8| #b11111010)
(= |z$r_buff0_thd1#1$wclk$8| #b10100111)
(= |z$r_buff0_thd1#2$rclk$8| #b11000010)
(= |z$r_buff0_thd2#1$wclk$8| #b10101000)
(= |z$r_buff0_thd2#2$rclk$8| #b11011110)
(= |z$r_buff0_thd2#5$rclk$8| #b11000010)
(= |z$r_buff0_thd2#4$wclk$8| #b11011110)
(= |z$r_buff0_thd3#1$wclk$8| #b10101001)
(= |z$r_buff0_thd3#2$rclk$8| #b11000010)
(= |z$r_buff0_thd3#6$rclk$8| #b11000011)
(= |z$r_buff0_thd3#33$rclk$8| #b11101101)
(= |z$r_buff1_thd0#11$wclk$8| #b11000010)
(= |z$r_buff1_thd0#2$rclk$8| #b11111010)
(= |z$r_buff1_thd0#1$wclk$8| #b10101010)
(= |z$r_buff1_thd0#10$rclk$8| #b11000010)
(= |z$r_buff1_thd0#8$wclk$8| #b11111010)
(= |z$r_buff1_thd1#1$wclk$8| #b10101011)
(= |z$r_buff1_thd1#3$rclk$8| #b11000010)
(= |z$r_buff1_thd2#1$wclk$8| #b10101100)
(= |z$r_buff1_thd2#2$rclk$8| #b11011110)
(= |z$r_buff1_thd2#7$wclk$8| #b11000010)
(= |z$r_buff1_thd2#6$rclk$8| #b11000010)
(= |z$r_buff1_thd2#4$wclk$8| #b11011110)
(= |z$r_buff1_thd3#1$wclk$8| #b10101101)
(= |z$r_buff1_thd3#3$rclk$8| #b11000010)
(= |z$r_buff1_thd3#5$rclk$8| #b11000011)
(= |z$r_buff1_thd3#17$rclk$8| #b11101101)
(= |z$w_buff0#6$wclk$8| #b11011110)
(= |z$w_buff0#2$rclk$8| #b11111010)
(= |z$w_buff0#9$wclk$8| #b11000010)
(= |z$w_buff0#17$wclk$8| #b11000011)
(= |z$w_buff0#1$wclk$8| #b10110000)
(= |z$w_buff0#4$rclk$8| #b11011110)
(= |z$w_buff0#7$rclk$8| #b11000010)
(= |z$w_buff0#10$rclk$8| #b11000011)
(= |z$w_buff0#18$rclk$8| #b11101101)
(= |z$w_buff0_used#13$wclk$8| #b11011110)
(= |z$w_buff0_used#2$rclk$8| #b11111010)
(= |z$w_buff0_used#16$wclk$8| #b11000010)
(= |z$w_buff0_used#36$wclk$8| #b11000011)
(= |z$w_buff0_used#45$wclk$8| #b11101101)
(= |z$w_buff0_used#1$wclk$8| #b10110001)
(= |z$w_buff0_used#11$rclk$8| #b11011110)
(= |z$w_buff0_used#10$wclk$8| #b11111010)
(= |z$w_buff0_used#14$rclk$8| #b11000010)
(= |z$w_buff0_used#17$rclk$8| #b11000011)
(= |z$w_buff0_used#37$rclk$8| #b11101101)
(= |z$w_buff1#6$wclk$8| #b11011110)
(= |z$w_buff1#2$rclk$8| #b11111010)
(= |z$w_buff1#7$wclk$8| #b11000010)
(= |z$w_buff1#15$wclk$8| #b11000011)
(= |z$w_buff1#1$wclk$8| #b10110010)
(= |z$w_buff1#4$rclk$8| #b11011110)
(= |z$w_buff1#8$rclk$8| #b11000011)
(= |z$w_buff1#16$rclk$8| #b11101101)
(= |z$w_buff1_used#11$wclk$8| #b11011110)
(= |z$w_buff1_used#2$rclk$8| #b11111010)
(= |z$w_buff1_used#12$wclk$8| #b11000010)
(= |z$w_buff1_used#24$wclk$8| #b11000011)
(= |z$w_buff1_used#31$wclk$8| #b11101101)
(= |z$w_buff1_used#1$wclk$8| #b10110011)
(= |z$w_buff1_used#9$rclk$8| #b11011110)
(= |z$w_buff1_used#8$wclk$8| #b11111010)
(= |z$w_buff1_used#13$rclk$8| #b11000011)
(= |z$w_buff1_used#25$rclk$8| #b11101101)
(= |weak$$choice0#1$wclk$8| #b10011111)
(= |weak$$choice0#4$rclk$8| #b11000011)
(= |weak$$choice0#2$wclk$8| #b11011110)
(= |weak$$choice2#1$wclk$8| #b10100000)
(= |weak$$choice2#4$rclk$8| #b11000011)
(= |weak$$choice2#2$wclk$8| #b11011110)
(= |x#2$wclk$8| #b11000110)
(= |__unbuffered_p0_EAX#1$wclk$8| #b01000000)
(= |__unbuffered_p0_EBX#1$wclk$8| #b01000001)
(= |__unbuffered_p1_EAX#1$wclk$8| #b01000010)
(= |z$flush_delayed#9$wclk$8| #b11000011)
(= |z$mem_tmp#6$wclk$8| #b11000011)
(= |z$r_buff0_thd3#5$wclk$8| #b11000010)
(= |z$r_buff0_thd3#32$wclk$8| #b11000011)
(= |z$r_buff0_thd3#41$wclk$8| #b11101101)
(= |z$r_buff1_thd1#4$wclk$8| #b11000010)
(= |z$r_buff1_thd3#4$wclk$8| #b11000010)
(= |z$r_buff1_thd3#16$wclk$8| #b11000011)
(= |z$r_buff1_thd3#23$wclk$8| #b11101101)
(= |weak$$choice0#5$wclk$8| #b11000011)
(= |weak$$choice2#12$wclk$8| #b11000011)
(= t1$44$spwnclk$8 #b10110111)
(= t1$49$spwnclk$8 #b10111100)
(= t1$54$spwnclk$8 #b11000000)
(= |main::1::t409!0@1$wclk$8| #b00000000)
(= |main::1::t410!0@1$wclk$8| #b00010000)
(= |__CPROVER_dead_object#1$wclk$8| #b00011000)
(= |__CPROVER_deallocated#1$wclk$8| #b00011100)
(= |__CPROVER_malloc_is_new_array#1$wclk$8| #b00011110)
(= |__CPROVER_malloc_object#1$wclk$8| #b00100000)
(= |__CPROVER_malloc_size#1$wclk$8| #b00100001)
(= |__CPROVER_memory_leak#1$wclk$8| #b00100010)
(= |__CPROVER_next_thread_id#1$wclk$8| #b00100100)
(= |__CPROVER_pipe_count#1$wclk$8| #b00100101)
(= |main$tmp_guard0#1$wclk$8| #b01001101)
(= |main$tmp_guard1#1$wclk$8| #b10011110)
(= |z$read_delayed#1$wclk$8| #b10101110)
(= |z$read_delayed_var#1$wclk$8| #b10101111)
(= |main::1::t408!0@1#1$wclk$8| #b10110100)
(= |__CPROVER_next_thread_id#2$wclk$8| #b10110101)
(= |main::1::t408!0@1#2$wclk$8| #b10110110)
(= |main::1::t409!0@1#1$wclk$8| #b10111000)
(= |__CPROVER_next_thread_id#3$rclk$8| #b10111010)
(= |__CPROVER_next_thread_id#5$wclk$8| #b10111010)
(= |main::1::t409!0@1#2$wclk$8| #b10111011)
(= |main::1::t410!0@1#1$wclk$8| #b10111101)
(= |__CPROVER_next_thread_id#6$rclk$8| #b10111110)
(= |__CPROVER_next_thread_id#8$wclk$8| #b10111110)
(= |main::1::t410!0@1#2$wclk$8| #b10111111)
(= |main$tmp_guard0#2$wclk$8| #b11111000)
(= |main$tmp_guard0#3$rclk$8| #b11111001)
(= |z$r_buff0_thd0#2$rclk$8| #b11111010)
(= |main$tmp_guard1#3$rclk$8| #b11111011)
(= |main$tmp_guard1#4$wclk$8| #b11111011)
(= |main$tmp_guard1#5$rclk$8| #b11111110)
(= |main$tmp_guard1#6$rclk$8| #b11111111)
(= array_of.0 @fun_7)
(= |__CPROVER_threads_exited#2| @fun_5)
(= |__CPROVER_threads_exited#4| @fun_7)
(= |__CPROVER_threads_exited#6| @fun_5)
(function @fun_7
 (type (Array (_ BitVec 32) (_ BitVec 1)))
 (= (@fun_7 #b00000000000000000000000000000000) #b0)
 (default #b1))
(function @fun_5
 (type (Array (_ BitVec 32) (_ BitVec 1)))
 (default #b1))

real	0m0.028s
user	0m0.025s
sys	0m0.004s
State: AC Run_time: 0.030307531356811523